162
221
143
58
280
96
139
95
50
538
853
170
227
508
345
184
129
212
335
77
118
48
400
392
47
528
81
386
0
206
1194
356
470
89
161
163
705
77
147
315
218
89
189
212
202
121
530
221
195
197
50
136
105
271
215
104
202
102
155
112
101
490
128
303
148
441
251
218
738
97
302
119
111
238
112
139
97
96
580
308
161
320
310
285
338
85
99
261
78
578
496
294
535
157
0
131
158
242
339
193
